c is-unsat
p cnf 12 78
7 -4 -12 0
-5 -6 1 0
9 -7 5 0
-6 -4 -1 0
-10 5 3 0
-6 -1 12 0
-2 10 -9 0
-5 -4 -7 0
-2 4 5 0
6 -1 -8 0
-2 -9 -6 0
8 -4 -7 0
4 11 -8 0
-9 3 -10 0
-8 -9 -4 0
7 -11 -12 0
-3 -8 -12 0
-1 -6 -9 0
-6 9 -3 0
6 -2 -12 0
-6 -9 -12 0
-10 -6 -3 0
-10 -11 7 0
2 -11 3 0
5 -8 2 0
-11 6 -2 0
-9 -8 3 0
-10 -6 -7 0
10 9 11 0
-5 -3 -1 0
5 1 -3 0
-2 -7 12 0
11 -9 -1 0
-12 4 -5 0
5 -8 -11 0
1 6 12 0
-2 12 -1 0
9 7 1 0
-6 -7 -4 0
-12 1 -11 0
-10 5 -8 0
-2 -8 -9 0
3 7 -10 0
-12 -9 -3 0
-4 -7 11 0
-3 5 12 0
-2 -7 -9 0
-9 -4 1 0
1 -2 -4 0
-12 -1 -4 0
-3 11 -1 0
-1 -6 -8 0
-6 5 8 0
12 -6 -8 0
-12 -5 -9 0
-12 -9 3 0
7 9 -6 0
-2 -3 -9 0
-6 -2 -1 0
-7 -11 -5 0
-12 5 -1 0
5 -3 11 0
-1 -11 -12 0
5 1 -2 0
6 -5 4 0
-4 -7 -5 0
4 7 -3 0
-7 -5 -11 0
10 -5 -8 0
-7 12 11 0
-10 -11 -6 0
5 -8 -9 0
5 -12 -2 0
-12 -3 -8 0
10 -9 -11 0
-6 -10 -1 0
-9 -12 -10 0
-6 -5 -7 0
